p cnf 118 246
-1 105 0 
-2 3 52 53 68 104 106 0 
-3 2 52 53 68 104 106 0 
-4 107 0 
-5 8 13 20 34 47 86 96 97 108 0 
-6 7 16 26 45 46 55 58 71 78 103 105 0 
-7 6 16 26 45 46 55 58 71 78 103 108 0 
-8 5 13 20 34 47 86 96 97 108 0 
-9 109 0 
-10 12 110 0 
-11 50 70 111 0 
-12 10 112 0 
-13 5 8 20 34 47 86 96 97 -14 109 0 
-15 -16 6 7 26 45 46 55 58 71 78 103 108 0 
-17 72 91 -18 108 0 
-19 -20 5 8 13 34 47 86 96 97 105 0 
-21 61 74 110 0 
-15 108 0 
-17 72 91 -22 112 0 
-23 -24 35 77 80 83 85 87 99 101 111 0 
-25 29 30 31 32 33 38 41 42 44 64 95 -4 107 0 
-26 6 7 16 45 46 55 58 71 78 103 -27 39 43 59 98 -28 107 0 
-29 25 30 31 32 33 38 41 42 44 64 95 -4 107 0 
-30 25 29 31 32 33 38 41 42 44 64 95 -4 107 0 
-31 25 29 30 32 33 38 41 42 44 64 95 -4 107 0 
-32 25 29 30 31 33 38 41 42 44 64 95 106 0 
-33 25 29 30 31 32 38 41 42 44 64 95 -4 107 0 
-34 5 8 13 20 47 86 96 97 106 0 
-35 24 77 80 83 85 87 99 101 -36 -37 76 -38 25 29 30 31 32 33 41 42 44 64 95 107 0 
-39 27 43 59 98 -28 107 0 
-40 49 62 105 0 
-41 25 29 30 31 32 33 38 42 44 64 95 105 0 
-42 25 29 30 31 32 33 38 41 44 64 95 113 -24 -35 -77 -80 -83 -85 -87 -99 -101 0 
-43 27 39 59 98 114 -102 0 
-42 25 29 30 31 32 33 38 41 44 64 95 115 -66 -89 -90 -100 0 
-42 25 29 30 31 32 33 38 41 44 64 95 116 -92 0 
-44 25 29 30 31 32 33 38 41 42 64 95 111 0 
-45 6 7 16 26 46 55 58 71 78 103 106 0 
-46 6 7 16 26 45 55 58 71 78 103 106 0 
-47 5 8 13 20 34 86 96 97 -48 -1 108 0 
-17 72 91 -49 40 62 -28 108 0 
-35 24 77 80 83 85 87 99 101 106 0 
-50 11 70 111 0 
-9 112 0 
-51 54 65 94 -52 2 3 53 68 104 105 0 
-17 72 91 112 0 
-53 2 3 52 68 104 107 0 
-54 51 65 94 107 0 
-55 6 7 16 26 45 46 58 71 78 103 106 0 
-20 5 8 13 34 47 86 96 97 -56 105 0 
-57 107 0 
-58 6 7 16 26 45 46 55 71 78 103 111 0 
-59 27 39 43 98 -28 107 0 
-34 5 8 13 20 47 86 96 97 -28 107 0 
-60 93 -28 107 0 
-61 21 74 -28 107 0 
-59 27 39 43 98 106 0 
-31 25 29 30 32 33 38 41 42 44 64 95 106 0 
-34 5 8 13 20 47 86 96 97 -54 51 65 94 -4 107 0 
-31 25 29 30 32 33 38 41 42 44 64 95 -34 5 8 13 20 47 86 96 97 107 0 
-62 40 49 -63 108 0 
-51 54 65 94 -63 108 0 
-63 112 0 
-64 25 29 30 31 32 33 38 41 42 44 95 108 0 
-64 25 29 30 31 32 33 38 41 42 44 95 117 0 
-55 6 7 16 26 45 46 58 71 78 103 -39 27 43 59 98 -28 107 0 
-37 76 -34 5 8 13 20 47 86 96 97 -54 51 65 94 -4 107 0 
-59 27 39 43 98 -31 25 29 30 32 33 38 41 42 44 64 95 -4 107 0 
-65 51 54 94 106 0 
-66 89 90 100 107 0 
-67 107 0 
-17 72 91 -48 108 0 
-68 2 3 52 53 104 107 0 
-17 72 91 -69 108 0 
-35 24 77 80 83 85 87 99 101 -45 6 7 16 26 46 55 58 71 78 103 106 0 
-70 11 50 108 0 
-40 49 62 118 0 
-71 6 7 16 26 45 46 55 58 78 103 118 0 
-72 17 91 -73 -35 24 77 80 83 85 87 99 101 106 0 
-72 17 91 -74 21 61 -34 5 8 13 20 47 86 96 97 106 0 
-75 -34 5 8 13 20 47 86 96 97 106 0 
-76 37 -77 24 35 80 83 85 87 99 101 118 0 
-11 50 70 110 0 
-78 6 7 16 26 45 46 55 58 71 103 118 0 
-79 -46 6 7 16 26 45 55 58 71 78 103 106 0 
-77 24 35 80 83 85 87 99 101 118 0 
-65 51 54 94 -34 5 8 13 20 47 86 96 97 106 0 
-80 24 35 77 83 85 87 99 101 118 0 
-81 -82 84 -55 6 7 16 26 45 46 58 71 78 103 106 0 
-83 24 35 77 80 85 87 99 101 106 0 
-82 84 -35 24 77 80 83 85 87 99 101 106 0 
-57 -34 5 8 13 20 47 86 96 97 -84 82 106 0 
-85 24 35 77 80 83 87 99 101 111 0 
-86 5 8 13 20 34 47 96 97 111 0 
-87 24 35 77 80 83 85 99 101 111 0 
-17 72 91 -74 21 61 108 0 
-21 61 74 108 0 
-5 8 13 20 34 47 86 96 97 -69 -1 108 0 
-5 8 13 20 34 47 86 96 97 -48 -1 108 0 
-47 5 8 13 20 34 86 96 97 -88 108 0 
-89 66 90 100 -1 105 0 
-52 2 3 53 68 104 105 0 
-90 66 89 100 -34 5 8 13 20 47 86 96 97 106 0 
-91 17 72 108 0 
-92 -93 60 -45 6 7 16 26 46 55 58 71 78 103 106 0 
-5 8 13 20 34 47 86 96 97 -48 -1 108 0 
-17 72 91 -94 51 54 65 108 0 
-25 29 30 31 32 33 38 41 42 44 64 95 107 0 
-95 25 29 30 31 32 33 38 41 42 44 64 107 0 
-33 25 29 30 31 32 38 41 42 44 64 95 107 0 
-29 25 30 31 32 33 38 41 42 44 64 95 -1 107 0 
-38 25 29 30 31 32 33 41 42 44 64 95 107 0 
-17 72 91 -49 40 62 108 0 
-62 40 49 -96 5 8 13 20 34 47 86 97 -63 108 0 
-17 72 91 -49 40 62 108 0 
-97 5 8 13 20 34 47 86 96 -4 105 0 
-98 27 39 43 59 106 0 
-65 51 54 94 -45 6 7 16 26 46 55 58 71 78 103 106 0 
-4 105 0 
-99 24 35 77 80 83 85 87 101 106 0 
-84 82 -100 66 89 90 108 0 
-62 40 49 108 0 
-79 107 0 
-101 24 35 77 80 83 85 87 99 111 0 
-102 -87 24 35 77 80 83 85 99 101 111 0 
-103 6 7 16 26 45 46 55 58 71 78 -86 5 8 13 20 34 47 96 97 111 0 
-104 2 3 52 53 68 -56 105 0 
-102 -56 105 0 
2 -56 103 0 
-4 -21 67 0 
2 -43 61 0 
-33 -73 104 0 
15 69 94 0 
-32 102 110 0 
-58 -65 83 0 
-93 -99 -109 0 
34 107 -113 0 
-23 67 -115 0 
-27 -30 -90 0 
39 -55 -70 0 
9 30 91 0 
13 23 114 0 
-20 -36 110 0 
-23 74 88 0 
-62 -78 99 0 
-39 86 -90 0 
24 -83 108 0 
-20 50 68 0 
-8 -66 83 0 
-49 51 -54 0 
17 45 94 0 
-59 -65 -97 0 
16 56 66 0 
40 -83 -85 0 
-17 -22 -87 0 
13 32 -82 0 
-66 -84 102 0 
-54 64 104 0 
1 -6 81 0 
16 -95 -99 0 
29 -56 79 0 
12 -92 97 0 
2 -16 -57 0 
75 97 -105 0 
10 61 72 0 
-28 93 114 0 
-2 17 55 0 
2 7 91 0 
8 17 52 0 
2 -79 117 0 
22 62 84 0 
-18 -42 -76 0 
30 -34 -51 0 
-8 31 99 0 
4 25 30 0 
-17 56 -88 0 
-48 -53 -111 0 
25 -56 66 0 
18 -26 -29 0 
10 -47 -105 0 
38 74 116 0 
31 -41 -102 0 
26 -37 69 0 
76 104 104 0 
18 114 -116 0 
114 -114 -118 0 
80 -107 110 0 
16 28 -100 0 
-44 -98 -101 0 
-17 21 -52 0 
-53 94 114 0 
14 43 -113 0 
-22 28 -100 0 
17 28 -112 0 
-43 61 -80 0 
2 49 69 0 
15 54 92 0 
18 40 -57 0 
9 52 74 0 
-15 43 102 0 
-78 -106 109 0 
-7 75 115 0 
33 -63 -85 0 
82 93 108 0 
-13 57 107 0 
58 89 89 0 
20 59 -93 0 
3 -17 43 0 
-15 -43 -84 0 
11 -40 -112 0 
-70 -80 -80 0 
19 -19 -34 0 
-9 -27 102 0 
-20 -70 -100 0 
13 21 68 0 
-16 20 -73 0 
28 30 -88 0 
88 99 -102 0 
102 103 104 0 
34 -36 79 0 
11 -32 56 0 
2 44 54 0 
8 -60 70 0 
3 46 100 0 
15 -75 -110 0 
55 76 101 0 
-78 -105 108 0 
-10 -25 112 0 
-23 -62 81 0 
-52 -63 -97 0 
-45 47 54 0 
-10 59 -59 0 
4 28 -70 0 
-18 -49 -59 0 
-3 37 48 0 
-19 29 117 0 
16 35 85 0 
-27 -51 94 0 
29 -57 66 0 
61 79 103 0 
15 49 112 0 
13 21 97 0 
39 96 109 0 
1 -77 100 0 
-23 -32 -55 0 
-7 36 103 0 
